Version identifier: 22.1.0.0 | 2022-03-09 | 1a383f8ce
CPXPARAM_Read_DataCheck                          1
CPXPARAM_TimeLimit                               600
Tried aggregator 4 times.
MIP Presolve eliminated 191328 rows and 14473 columns.
MIP Presolve modified 1800 coefficients.
Aggregator did 180589 substitutions.
Reduced MIP has 15131 rows, 183082 columns, and 381677 nonzeros.
Reduced MIP has 183034 binaries, 48 generals, 0 SOSs, and 0 indicators.
Presolve time = 2.87 sec. (2954.80 ticks)
Tried aggregator 1 time.
Detecting symmetries...
Reduced MIP has 15131 rows, 183082 columns, and 381677 nonzeros.
Reduced MIP has 183034 binaries, 48 generals, 0 SOSs, and 0 indicators.
Presolve time = 0.52 sec. (299.89 ticks)
Probing fixed 72 vars, tightened 0 bounds.
Probing time = 1.15 sec. (97.72 ticks)
Clique table members: 369571.
MIP emphasis: balance optimality and feasibility.
MIP search method: dynamic search.
Parallel mode: deterministic, using up to 8 threads.
Root relaxation solution time = 3.75 sec. (1502.17 ticks)

        Nodes                                         Cuts/
   Node  Left     Objective  IInf  Best Integer    Best Bound    ItCnt     Gap

      0     0       48.3981 11258                     48.3981       29         
      0     0       78.0000   931                   Fract: 30    23052         
      0     0       78.0000  1193                   Cuts: 132    46212         
      0     0       78.0000  1101                ZeroHalf: 91    69273         

Clique cuts applied:  4
Zero-half cuts applied:  234
Lift and project cuts applied:  6
Gomory fractional cuts applied:  33

Root node processing (before b&c):
  Real time             =  600.06 sec. (256471.55 ticks)
Parallel b&c, 8 threads:
  Real time             =    0.00 sec. (0.00 ticks)
  Sync time (average)   =    0.00 sec.
  Wait time (average)   =    0.00 sec.
                          ------------
Total (root+branch&cut) =  600.06 sec. (256471.55 ticks)
